42385
49,47,44,43,35,32,31,34,53,56,52,55,54,57,58,59,60,61,62,63,85,84,83,86,87,89,91,90,81,82,80,79,78,77,76,75,74,68,67,66,65,64,73,72,71,70,69,51,30,16,3,1,2,4,5,6,7,8,13,14,15,12,10,9,17,18,11,19,21,20,26,33,37,127,28,27,29,22,23,24,25,146,154,155,153,152,149,148,147,144,145,185,184,141,140,143,139,138,142,137,128,129,131,130,39,118,38,36,40,103,41,42,45,46,106,105,104,107,108,109,110,111,112,119,120,123,124,121,122,125,126,132,133,136,186,175,173,176,177,189,188,187,190,150,151,192,197,199,200,201,202,198,191,193,194,196,195,183,182,179,181,180,178,174,172,166,162,157,158,159,160,161,165,164,169,170,171,135,134,167,168,163,117,116,115,114,113,101,102,156,98,88,94,92,93,97,96,95,100,99,50,48,49
